; benchmark generated from python API
(set-info :status unknown)
(declare-datatypes ((IntState 0)) (((Mk1 (val1 Int)) (Mk2 (val2 Int)))))
 (declare-fun c_main_~k~6 () Int)
(declare-fun c_main_~j~6 () Int)
(declare-fun c_main_~i~6 () Int)
(assert
 (let (($x86 (exists ((main_~i~6_st IntState) (val!59 Int) )(let ((?x56 (val2 main_~i~6_st)))
 (let (($x69 (<= ?x56 4)))
 (let (($x25 (and (<= c_main_~j~6 (+ (* 2 ?x56) 1)) $x69 (<= ?x56 c_main_~k~6))))
 (let (($x52 (not (= main_~i~6_st (Mk1 val!59)))))
 (and $x52 $x25))))))
 ))
 (let (($x129 (<= c_main_~i~6 4)))
 (let (($x164 (<= c_main_~j~6 (+ (* 2 c_main_~i~6) 1))))
 (let (($x173 (exists ((v_nnf_82 Int) )(let (($x83 (<= v_nnf_82 4)))
 (let (($x70 (<= c_main_~j~6 (+ (* 2 v_nnf_82) 1))))
 (and (<= (+ v_nnf_82 4) c_main_~k~6) $x70 $x83))))
 ))
 (let ((?x123 (* 2 c_main_~i~6)))
 (let (($x23 (<= c_main_~j~6 ?x123)))
 (and (and $x164 $x129 $x23 $x173) (not (and $x164 $x129 $x86))))))))))
(check-sat)
